data/MCDM/NO_CORR/GEN_FROM_60/19_ITEMS_1000_GEN/K5019W06.KNP.mps
NAME          BLANK   
ROWS
 N  OBJROW
 L  R0000000
COLUMNS
    C0000000  OBJROW     -168.         R0000000  684.        
    C0000001  OBJROW     -547.         R0000000  45.         
    C0000002  OBJROW     -914.         R0000000  302.        
    C0000003  OBJROW     -226.         R0000000  788.        
    C0000004  OBJROW     -58.          R0000000  652.        
    C0000005  OBJROW     -429.         R0000000  641.        
    C0000006  OBJROW     -69.          R0000000  402.        
    C0000007  OBJROW     -693.         R0000000  79.         
    C0000008  OBJROW     -507.         R0000000  759.        
    C0000009  OBJROW     -163.         R0000000  328.        
    C0000010  OBJROW     -978.         R0000000  889.        
    C0000011  OBJROW     -712.         R0000000  130.        
    C0000012  OBJROW     -274.         R0000000  329.        
    C0000013  OBJROW     -392.         R0000000  113.        
    C0000014  OBJROW     -859.         R0000000  889.        
    C0000015  OBJROW     -171.         R0000000  391.        
    C0000016  OBJROW     -167.         R0000000  100.        
    C0000017  OBJROW     -294.         R0000000  17.         
    C0000018  OBJROW     -124.         R0000000  721.        
RHS
    RHS       R0000000  14444.      
BOUNDS
 BV BOUND     C0000000  1.          
 BV BOUND     C0000001  1.          
 BV BOUND     C0000002  1.          
 BV BOUND     C0000003  1.          
 BV BOUND     C0000004  1.          
 BV BOUND     C0000005  1.          
 BV BOUND     C0000006  1.          
 BV BOUND     C0000007  1.          
 BV BOUND     C0000008  1.          
 BV BOUND     C0000009  1.          
 BV BOUND     C0000010  1.          
 BV BOUND     C0000011  1.          
 BV BOUND     C0000012  1.          
 BV BOUND     C0000013  1.          
 BV BOUND     C0000014  1.          
 BV BOUND     C0000015  1.          
 BV BOUND     C0000016  1.          
 BV BOUND     C0000017  1.          
 BV BOUND     C0000018  1.          
ENDATA
