data/MCDM/NO_CORR/GEN_FROM_60/19_ITEMS_1000_GEN/K5019W06.KNP.txt
N 19
M 20
LC 19
LC 20
LC 21
LC 22
LC 23
LC 24
LC 25
LC 26
LC 27
LC 28
LC 29
LC 30
LC 31
LC 32
LC 33
LC 34
LC 35
LC 36
LC 37
LR 1
LR 2
LR 3
LR 4
LR 5
LR 6
LR 7
LR 8
LR 9
LR 10
LR 11
LR 12
LR 13
LR 14
LR 15
LR 16
LR 17
LR 18
LR 19
LR 20
LO -168
LO -547
LO -914
LO -226
LO -58
LO -429
LO -69
LO -693
LO -507
LO -163
LO -978
LO -712
LO -274
LO -392
LO -859
LO -171
LO -167
LO -294
LO -124
OS 1
IC 62
IC 300
IC 985
IC 562
IC 2
IC 9
IC 805
IC 100
IC 149
IC 647
IC 838
IC 152
IC 563
IC 60
IC 841
IC 874
IC 72
IC 226
IC 361
IB 3804
